units           lj
atom_style      hybrid sphere dipole

dimension       3 
boundary        p p p

read_data       "rigidmembrane.data"

group 				mem     type 1
	
# membrane parameters
variable        rc_global    equal    2.6
variable        rc           equal    2.6
variable		rc_interact  equal    4.0
variable        rmin         equal    1.122462
variable        mu           equal    3
variable        zeta         equal    4
variable        eps          equal    4.34
variable        sigma        equal    1.00

variable        theta0_11    equal    0.0

variable memsize equal "count(mem)"
compute ct all temp/sphere
compute_modify ct extra ${memsize}

# only membrane gets velocity, start with Temp=3 to offset the potential energy when relaxed from hex lattice
variable        Nmem        equal    "count(mem)"
if "${Nmem} > 1" then "velocity        mem create   3.0  1000 rot yes mom yes "  

# Use hybrid overlay for pair_style membrane and lj/expand
pair_style      hybrid/overlay  membrane     ${rc_global}

#        same here for intra-membrane interactions
pair_coeff	*      *        membrane     0.0           0.0            0.0           0.0       0.0      0.0    0.0
pair_coeff	1      1        membrane     ${eps}        ${sigma}       ${rmin}       ${rc}     ${zeta}  ${mu}  ${theta0_11}

neigh_modify	every 1 delay 1

fix		fLANG	    all	    langevin 1.0 1.0 1.0 1000 zero yes omega yes
fix		fNPH  	    mem     nph/sphere x 0.0 0.0 10 y 0.0 0.0 10 &
		couple xy  update dipole dilate all
fix_modify	fNPH  temp ct press thermo_press

dump 		coords all xyz 1000 relaxmembrane.xyz
dump		mus all custom 1000 relaxmembrane.mu mux muy muz
dump_modify	coords sort id
dump_modify mus    sort id

timestep       0.01
thermo         100
run            200000